% File represents an instance of a Composite Structure problem to be solved by a CP framework
% Created on 2025-03-26 10:41:16.795
T = 50;
n = 9;
m = 12;
edges = [(1, 2),
(4, 5),
(7, 8),
(3, 2),
(5, 6),
(9, 8),
(4, 1),
(7, 4),
(5, 2),
(8, 5),
(3, 6),
(9, 6)];
counts = [|10, 6, 10, 16,
|10, 6, 10, 10,
|10, 10, 10, 12,
|10, 10, 10, 18,
|10, 10, 10, 12,
|10, 10, 10, 10,
|10, 10, 10, 20,
|10, 10, 10, 14,
|10, 10, 10, 16|];
